p cnf 10 25
-8 -2 -9 0
-6 4 -4 0
-7 -6 -10 0
-8 -6 2 0
-4 -3 6 0
9 -6 5 0
9 -3 6 0
8 5 -10 0
8 2 -2 0
-7 -6 3 0
1 2 5 0
10 -4 -1 0
-3 -1 -10 0
-8 9 -2 0
-3 6 7 0
-4 5 -1 0
10 -5 -1 0
-3 5 -1 0
9 4 6 0
-7 10 -4 0
3 -3 -9 0
9 5 -9 0
-7 -6 -4 0
9 4 1 0
-6 4 7 0
